
Gurobi 10.0.0 (linux64, gurobi_cl) logging started Thu Jan 12 16:54:11 2023

Set parameter LogFile to value "gurobi.log"
Restricted license - for non-production use only - expires 2024-10-28

Gurobi 10.0.0 (linux64, gurobi_cl) logging started Thu Jan 12 16:55:03 2023

Set parameter LogFile to value "gurobi.log"
Restricted license - for non-production use only - expires 2024-10-28

Gurobi 10.0.0 (linux64, gurobi_cl) logging started Thu Jan 12 16:55:36 2023

Set parameter LogFile to value "gurobi.log"
Restricted license - for non-production use only - expires 2024-10-28

Gurobi 10.0.0 (linux64, gurobi_cl) logging started Thu Jan 12 16:55:41 2023

Set parameter LogFile to value "gurobi.log"
Restricted license - for non-production use only - expires 2024-10-28

Gurobi 10.0.0 (linux64, gurobi_cl) logging started Thu Jan 12 16:56:38 2023

Set parameter LogFile to value "gurobi.log"
Restricted license - for non-production use only - expires 2024-10-28

Gurobi 10.0.0 (linux64, gurobi_cl) logging started Thu Jan 12 17:25:09 2023

Set parameter LogFile to value "gurobi.log"
Restricted license - for non-production use only - expires 2024-10-28

Gurobi 10.0.0 (linux64, gurobi_cl) logging started Thu Jan 12 17:25:16 2023

Set parameter LogFile to value "gurobi.log"
Restricted license - for non-production use only - expires 2024-10-28
